62 20 18 23 67 41 


































































































49 69 35 76 60 
10 58 17 71 22 25 
31 68 70 33 1 
28 57 15 34 13 
37 48 12 32 29 
21 55 47 19 42 

53 36 6 26 72 
44 8 4 43 54 
7 65 40 75 16 
30 39 74 38 27 
59 52 64 56 9 
66 0 73 63 46 
11 14 5 61 45 

24 50 3 2 51 
